260228.56,17.82,19.52
272035.19,17.05,18.67
266259.3,17.42,19.08
271074.96,17.11,18.74
276368.69,16.78,18.38
272416.2,17.02,18.65
260702.96,17.79,19.48
261803.22,17.71,19.4
270665.56,17.13,18.77
261175.65,17.76,19.45
263680.55,17.59,19.26
272325.82,17.03,18.65
251707.61,18.42,20.18
267280.26,17.35,19.01
269643.04,17.2,18.84
273891.9,16.93,18.55
280576.82,16.53,18.1
259573.01,17.87,19.57
262284.83,17.68,19.37
270827.38,17.12,18.76
